11
 1	11
 3000 2000 1000
 15
 1 400 0 375 0 300 1 24	1
 2 400 0 400 0 150 1 10	1
 3 300 0 150 0 200 1 11	1
 4 900 0 200 0 275 1 14	1
 5 800 0 150 0 275 1 6	1
 6 1500 0 150 0 200 1 20	1
 7 900 0 200 0 200 1 15	1
 8 400 0 375 0 250 1 29	2
 9 400 0 400 0 150 1 37	2
 10 300 0 300 0 200 1 34	2
 11 500 0 375 0 400 1 19	2
 12 800 0 275 0 200 1 16	2
 13 450 0 350 0 350 1 17	2
 14 900 0 200 0 200 1 25	2
 15 200 0 200 0 125 1 23	2
 2	12
 3000 2000 1000
 8
 1 400 0 375 0 250 1 29	1
 2 400 0 400 0 150 1 37	1
 3 300 0 300 0 200 1 34	1
 4 500 0 375 0 400 1 19	1
 5 800 0 275 0 200 1 16	2
 6 450 0 350 0 350 1 17	2
 7 900 0 200 0 200 1 25	2
 8 200 0 200 0 125 1 23	2
 3	23
 3000 2000 1000
 8
 1 400 0 375 0 250 1 29	2
 2 400 0 400 0 150 1 37	2
 3 300 0 300 0 200 1 34	2
 4 500 0 375 0 400 1 19	2
 5 800 0 275 0 200 1 16	1
 6 450 0 350 0 350 1 17	1
 7 900 0 200 0 200 1 25	1
 8 200 0 200 0 125 1 23	1
 4	31111
  3000 2000 1000
 8
 1 400 0 375 0 250 1 29	1
 2 400 0 400 0 150 1 37	1
 3 300 0 300 0 200 1 34	1
 4 500 0 375 0 400 1 19	1
 5 800 0 275 0 200 1 16	1
 6 450 0 350 0 350 1 17	2
 7 900 0 200 0 200 1 25	2
 8 200 0 200 0 125 1 23	2
 5	333
 3000 2000 1000
 8
 1 400 0 375 0 250 1 29	2
 2 400 0 400 0 150 1 37	2
 3 300 0 300 0 200 1 34	2
 4 500 0 375 0 400 1 19	1
 5 800 0 275 0 200 1 16	1
 6 450 0 350 0 350 1 17	2
 7 900 0 200 0 200 1 25	2
 8 200 0 200 0 125 1 23	2
 6	4444
 3000 2000 1000
 8
 1 400 0 375 0 250 1 29	1
 2 400 0 400 0 150 1 37	2
 3 300 0 300 0 200 1 34	1
 4 500 0 375 0 400 1 19	2
 5 800 0 275 0 200 1 16	1
 6 450 0 350 0 350 1 17	2
 7 900 0 200 0 200 1 25	1
 8 200 0 200 0 125 1 23	2
 7	4444444
 3500 2400 1000
 8
 1 400 0 375 0 250 1 34	1
 2 400 0 275 0 225 1 37	1
 3 300 0 250 0 125 1 23	1
 4 500 0 450 0 225 1 27	1
 5 1500 0 275 0 200 1 25	2
 6 600 0 400 0 300 1 23	2
 7 900 0 200 0 200 1 14	2
 8 700 0 350 0 300 1 17	2
 8	4444444
  3500 2400 1000
 8
 1 400 0 375 0 250 1 34	2
 2 400 0 275 0 225 1 37	2
 3 300 0 250 0 125 1 23	2
 4 500 0 450 0 225 1 27	2
 5 1500 0 275 0 200 1 25	1
 6 600 0 400 0 300 1 23	1
 7 900 0 200 0 200 1 14	1
 8 700 0 350 0 300 1 17	1
 9	44444
  3500 2400 1000
 8
 1 400 0 375 0 250 1 34	2
 2 400 0 275 0 225 1 37	2
 3 300 0 250 0 125 1 23	2
 4 500 0 450 0 225 1 27	2
 5 1500 0 275 0 200 1 25	2
 6 600 0 400 0 300 1 23	2
 7 900 0 200 0 200 1 14	1
 8 700 0 350 0 300 1 17	1
 10	44444444
  3500 2400 1000
 8
 1 400 0 375 0 250 1 34	1
 2 400 0 275 0 225 1 37	1
 3 300 0 250 0 125 1 23	1
 4 500 0 450 0 225 1 27	1
 5 1500 0 275 0 200 1 25	1
 6 600 0 400 0 300 1 23	2
 7 900 0 200 0 200 1 14	2
 8 700 0 350 0 300 1 17	2
 11	44444
  3500 2400 1000
 8
 1 400 0 375 0 250 1 34	1
 2 400 0 275 0 225 1 37	2
 3 300 0 250 0 125 1 23	1
 4 500 0 450 0 225 1 27	2
 5 1500 0 275 0 200 1 25	1
 6 600 0 400 0 300 1 23	2
 7 900 0 200 0 200 1 14	1
 8 700 0 350 0 300 1 17	2